% demand
num_movements = 22;
loading_factor = [1450, 1350, 1950, 2000, 1150, 1500, 1950, 1600, 1750, 1700, 1600, 1750, 1300, 1600, 850, 1500, 1250, 1200, 1400, 1800, 1950, 800];
pickup_time = [0, 0, 0, 0, 4, 5, 5, 5, 6, 6, 6, 7, 7, 7, 7, 7, 10, 10, 10, 10, 11, 11];
delivery_time = [5, 3, 6, 5, 5, 6, 7, 6, 7, 7, 7, 9, 8, 9, 8, 8, 13, 13, 11, 13, 13, 12];

% transporter definition
total_capacity = 7000;
num_decks = 3;
capacity = [3000, 1000, 3000];

% ways out of decks
num_ways_out = 1;
paths_out = array3d(decks, ways_out, decks, [
% ways out of deck d1
2, 3, 0, 

% ways out of deck d2
3, 0, 0, 

% ways out of deck d3
0, 0, 0,	

]);

